Maximize

20 x_0 + 10 x_1 + 80 x_2 + 30 x_3 + 50 x_4 + 60 x_5 + 70 x_6 + 40 x_7 + 90 x_8


Subject To

a0: x_0 <= 100
a1: x_1 <= 200
a2: x_2 <= 300
a3: x_3 <= 400
a4: x_4 <= 500
a5: x_5 <= 400
a6: x_6 <= 300
a7: x_7 <= 200
a8: x_8 <= 100
b0: 5 x_0 + 12 x_0 + 15 x_0 + 0 x_0 + 0 x_0 + 0 x_0 + 0 x_0 + 0 x_0 + 0 x_0 + 0 x_0 + 0 x_1 + 0 x_1 + 0 x_1 + 12 x_1 + 4 x_1 + 0 x_1 + 0 x_1 + 0 x_1 + 0 x_1 + 0 x_1 + 0 x_2 + 0 x_2 + 0 x_2 + 0 x_2 + 0 x_2 + 20 x_2 + 6 x_2 + 0 x_2 + 0 x_2 + 0 x_2 + 0 x_3 + 0 x_3 + 0 x_3 + 0 x_3 + 0 x_3 + 0 x_3 + 0 x_3 + 10 x_3 + 4 x_3 + 0 x_3 + 7 x_4 + 6 x_4 + 5 x_4 + 24 x_4 + 4 x_4 + 0 x_4 + 0 x_4 + 0 x_4 + 0 x_4 + 0 x_4 + 0 x_5 + 3 x_5 + 0 x_5 + 0 x_5 + 0 x_5 + 12 x_5 + 3 x_5 + 2 x_5 + 4 x_5 + 0 x_5 + 5 x_6 + 3 x_6 + 0 x_6 + 0 x_6 + 8 x_6 + 2 x_6 + 0 x_6 + 0 x_6 + 0 x_6 + 0 x_6 + 0 x_7 + 0 x_7 + 0 x_7 + 24 x_7 + 0 x_7 + 0 x_7 + 4 x_7 + 4 x_7 + 2 x_7 + 0 x_7 + 20 x_8 + 0 x_8 + 0 x_8 + 0 x_8 + 0 x_8 + 20 x_8 + 5 x_8 + 0 x_8 + 0 x_8 + 0 x_8 <= 500
c0: 10 x_0 + 16 x_0 + 18 x_0 + 0 x_0 + 0 x_0 + 0 x_0 + 0 x_0 + 0 x_0 + 0 x_0 + 0 x_0 + 0 x_1 + 0 x_1 + 0 x_1 + 10 x_1 + 3 x_1 + 0 x_1 + 0 x_1 + 0 x_1 + 0 x_1 + 0 x_1 + 0 x_2 + 0 x_2 + 0 x_2 + 0 x_2 + 0 x_2 + 10 x_2 + 6 x_2 + 0 x_2 + 0 x_2 + 0 x_2 + 0 x_3 + 0 x_3 + 0 x_3 + 0 x_3 + 0 x_3 + 0 x_3 + 0 x_3 + 10 x_3 + 8 x_3 + 0 x_3 + 14 x_4 + 8 x_4 + 6 x_4 + 20 x_4 + 3 x_4 + 0 x_4 + 0 x_4 + 0 x_4 + 0 x_4 + 0 x_4 + 0 x_5 + 4 x_5 + 0 x_5 + 0 x_5 + 0 x_5 + 6 x_5 + 3 x_5 + 2 x_5 + 8 x_5 + 0 x_5 + 10 x_6 + 4 x_6 + 0 x_6 + 0 x_6 + 6 x_6 + 1 x_6 + 0 x_6 + 0 x_6 + 0 x_6 + 0 x_6 + 0 x_7 + 0 x_7 + 0 x_7 + 20 x_7 + 0 x_7 + 0 x_7 + 4 x_7 + 4 x_7 + 4 x_7 + 0 x_7 + 40 x_8 + 0 x_8 + 0 x_8 + 0 x_8 + 0 x_8 + 10 x_8 + 5 x_8 + 0 x_8 + 0 x_8 + 0 x_8 <= 500





General

 x_0 x_1 x_2 x_3 x_4 x_5 x_6 x_7 x_8



End
